p cnf 92 260
1 4 9 14 19 24 29 34 0
37 40 45 50 55 60 65 70 0
-1 -89 -73 0
-1 -89 74 0
-4 -89 -74 0
-4 -89 75 0
-9 -89 -75 0
-9 -89 76 0
-14 -89 -76 0
-14 -89 77 0
-19 -89 -77 0
-19 -89 78 0
-24 -89 -78 0
-24 -89 79 0
-29 -89 -79 0
-29 -89 80 0
-4 -90 -74 0
-4 -90 73 0
-9 -90 -75 0
-9 -90 74 0
-14 -90 -76 0
-14 -90 75 0
-19 -90 -77 0
-19 -90 76 0
-24 -90 -78 0
-24 -90 77 0
-29 -90 -79 0
-29 -90 78 0
-34 -90 -80 0
-34 -90 79 0
-37 -91 -81 0
-37 -91 82 0
-40 -91 -82 0
-40 -91 83 0
-45 -91 -83 0
-45 -91 84 0
-50 -91 -84 0
-50 -91 85 0
-55 -91 -85 0
-55 -91 86 0
-60 -91 -86 0
-60 -91 87 0
-65 -91 -87 0
-65 -91 88 0
-40 -92 -82 0
-40 -92 81 0
-45 -92 -83 0
-45 -92 82 0
-50 -92 -84 0
-50 -92 83 0
-55 -92 -85 0
-55 -92 84 0
-60 -92 -86 0
-60 -92 85 0
-65 -92 -87 0
-65 -92 86 0
-70 -92 -88 0
-70 -92 87 0
-1 -89 2 0
-2 1 0
-2 89 0
2 -1 73 0
-4 -90 3 0
-3 4 0
-3 90 0
3 1 -73 0
-4 -89 5 0
-5 4 0
-5 89 0
-4 -90 6 0
-6 4 0
-6 90 0
5 6 -4 74 0
-1 -89 7 0
-7 1 0
-7 89 0
-9 -90 8 0
-8 9 0
-8 90 0
7 8 4 -74 0
-9 -89 10 0
-10 9 0
-10 89 0
-9 -90 11 0
-11 9 0
-11 90 0
10 11 -9 75 0
-4 -89 12 0
-12 4 0
-12 89 0
-14 -90 13 0
-13 14 0
-13 90 0
12 13 9 -75 0
-14 -89 15 0
-15 14 0
-15 89 0
-14 -90 16 0
-16 14 0
-16 90 0
15 16 -14 76 0
-9 -89 17 0
-17 9 0
-17 89 0
-19 -90 18 0
-18 19 0
-18 90 0
17 18 14 -76 0
-19 -89 20 0
-20 19 0
-20 89 0
-19 -90 21 0
-21 19 0
-21 90 0
20 21 -19 77 0
-14 -89 22 0
-22 14 0
-22 89 0
-24 -90 23 0
-23 24 0
-23 90 0
22 23 19 -77 0
-24 -89 25 0
-25 24 0
-25 89 0
-24 -90 26 0
-26 24 0
-26 90 0
25 26 -24 78 0
-19 -89 27 0
-27 19 0
-27 89 0
-29 -90 28 0
-28 29 0
-28 90 0
27 28 24 -78 0
-29 -89 30 0
-30 29 0
-30 89 0
-29 -90 31 0
-31 29 0
-31 90 0
30 31 -29 79 0
-24 -89 32 0
-32 24 0
-32 89 0
-34 -90 33 0
-33 34 0
-33 90 0
32 33 29 -79 0
-34 -90 35 0
-35 34 0
-35 90 0
35 -34 80 0
-29 -89 36 0
-36 29 0
-36 89 0
36 34 -80 0
-37 -91 38 0
-38 37 0
-38 91 0
38 -37 81 0
-40 -92 39 0
-39 40 0
-39 92 0
39 37 -81 0
-40 -91 41 0
-41 40 0
-41 91 0
-40 -92 42 0
-42 40 0
-42 92 0
41 42 -40 82 0
-37 -91 43 0
-43 37 0
-43 91 0
-45 -92 44 0
-44 45 0
-44 92 0
43 44 40 -82 0
-45 -91 46 0
-46 45 0
-46 91 0
-45 -92 47 0
-47 45 0
-47 92 0
46 47 -45 83 0
-40 -91 48 0
-48 40 0
-48 91 0
-50 -92 49 0
-49 50 0
-49 92 0
48 49 45 -83 0
-50 -91 51 0
-51 50 0
-51 91 0
-50 -92 52 0
-52 50 0
-52 92 0
51 52 -50 84 0
-45 -91 53 0
-53 45 0
-53 91 0
-55 -92 54 0
-54 55 0
-54 92 0
53 54 50 -84 0
-55 -91 56 0
-56 55 0
-56 91 0
-55 -92 57 0
-57 55 0
-57 92 0
56 57 -55 85 0
-50 -91 58 0
-58 50 0
-58 91 0
-60 -92 59 0
-59 60 0
-59 92 0
58 59 55 -85 0
-60 -91 61 0
-61 60 0
-61 91 0
-60 -92 62 0
-62 60 0
-62 92 0
61 62 -60 86 0
-55 -91 63 0
-63 55 0
-63 91 0
-65 -92 64 0
-64 65 0
-64 92 0
63 64 60 -86 0
-65 -91 66 0
-66 65 0
-66 91 0
-65 -92 67 0
-67 65 0
-67 92 0
66 67 -65 87 0
-60 -91 68 0
-68 60 0
-68 91 0
-70 -92 69 0
-69 70 0
-69 92 0
68 69 65 -87 0
-70 -92 71 0
-71 70 0
-71 92 0
71 -70 88 0
-65 -91 72 0
-72 65 0
-72 91 0
72 70 -88 0
-89 -90 0
-91 -92 0
